Periods = 20;
Items = 4;

Demands = [|0, 0, 0, 0, 0, 0, 1, 0, 1, 1, 1, 0, 0, 0, 0, 1, 1, 0, 1, 0 
           |0, 0, 1, 1, 0, 0, 0, 0, 0, 0, 0, 0, 0, 0, 0, 1, 0, 0, 0, 0 
           |0, 0, 0, 0, 0, 1, 0, 1, 1, 0, 0, 0, 0, 0, 0, 0, 0, 1, 0, 1 
           |0, 0, 0, 0, 0, 1, 0, 0, 0, 0, 1, 0, 1, 0, 0, 0, 1, 0, 1, 0|]; 

StockingCosts = [14, 20, 10, 10]; 

SetupCosts = [|0, 196, 103, 160 
              |170, 0, 189, 183 
              |115, 180, 0, 194 
              |164, 161, 104, 0|];
